(set-info :smt-lib-version 2.6)
(set-logic UF)
(set-info :source |Benchmarks from the paper: "Extending Sledgehammer with SMT Solvers" by Jasmin Blanchette, Sascha Bohme, and Lawrence C. Paulson, CADE 2011.  Translated to SMT2 by Andrew Reynolds and Morgan Deters.|)
(set-info :category "industrial")
(set-info :status sat)
(declare-sort S1 0)
(declare-sort S2 0)
(declare-sort S3 0)
(declare-sort S4 0)
(declare-sort S5 0)
(declare-sort S6 0)
(declare-sort S7 0)
(declare-sort S8 0)
(declare-sort S9 0)
(declare-sort S10 0)
(declare-sort S11 0)
(declare-sort S12 0)
(declare-sort S13 0)
(declare-sort S14 0)
(declare-sort S15 0)
(declare-sort S16 0)
(declare-sort S17 0)
(declare-sort S18 0)
(declare-sort S19 0)
(declare-sort S20 0)
(declare-sort S21 0)
(declare-sort S22 0)
(declare-sort S23 0)
(declare-sort S24 0)
(declare-sort S25 0)
(declare-sort S26 0)
(declare-sort S27 0)
(declare-sort S28 0)
(declare-sort S29 0)
(declare-sort S30 0)
(declare-sort S31 0)
(declare-sort S32 0)
(declare-sort S33 0)
(declare-sort S34 0)
(declare-sort S35 0)
(declare-sort S36 0)
(declare-sort S37 0)
(declare-sort S38 0)
(declare-sort S39 0)
(declare-sort S40 0)
(declare-sort S41 0)
(declare-sort S42 0)
(declare-sort S43 0)
(declare-sort S44 0)
(declare-sort S45 0)
(declare-sort S46 0)
(declare-sort S47 0)
(declare-sort S48 0)
(declare-sort S49 0)
(declare-sort S50 0)
(declare-sort S51 0)
(declare-sort S52 0)
(declare-sort S53 0)
(declare-sort S54 0)
(declare-sort S55 0)
(declare-sort S56 0)
(declare-sort S57 0)
(declare-sort S58 0)
(declare-sort S59 0)
(declare-sort S60 0)
(declare-sort S61 0)
(declare-fun f1 () S1)
(declare-fun f2 () S1)
(declare-fun f3 (S3 S2) S1)
(declare-fun f4 () S3)
(declare-fun f5 (S4 S3) S1)
(declare-fun f6 (S5 S2) S4)
(declare-fun f7 () S5)
(declare-fun f8 (S6 S7) S3)
(declare-fun f9 () S6)
(declare-fun f10 () S7)
(declare-fun f11 (S8 S9) S3)
(declare-fun f12 (S10 S9) S8)
(declare-fun f13 (S11 S12) S10)
(declare-fun f14 () S11)
(declare-fun f15 () S12)
(declare-fun f16 () S9)
(declare-fun f17 (S12 S13) S14)
(declare-fun f18 (S15 S12) S14)
(declare-fun f19 (S16 S1) S15)
(declare-fun f20 () S16)
(declare-fun f21 () S12)
(declare-fun f22 (S17 S13) S1)
(declare-fun f23 () S17)
(declare-fun f24 (S19 S13) S13)
(declare-fun f25 (S20 S13) S19)
(declare-fun f26 () S20)
(declare-fun f27 (S21 S18) S13)
(declare-fun f28 (S22 S18) S21)
(declare-fun f29 () S22)
(declare-fun f30 (S23 S18) S18)
(declare-fun f31 () S23)
(declare-fun f32 () S18)
(declare-fun f33 (S24 S18) S2)
(declare-fun f34 (S25 S13) S24)
(declare-fun f35 () S25)
(declare-fun f36 (S26 S3) S3)
(declare-fun f37 () S26)
(declare-fun f38 (S14 S18) S1)
(declare-fun f39 (S27 S13) S17)
(declare-fun f40 () S27)
(declare-fun f41 () S13)
(declare-fun f42 (S28 S2) S3)
(declare-fun f43 (S29 S28) S28)
(declare-fun f44 () S29)
(declare-fun f45 (S31 S13) S3)
(declare-fun f46 (S32 S30) S31)
(declare-fun f47 () S32)
(declare-fun f48 (S30 S2) S17)
(declare-fun f49 (S33 S31) S30)
(declare-fun f50 () S33)
(declare-fun f51 (S34 S27) S27)
(declare-fun f52 () S34)
(declare-fun f53 (S35 S3) S26)
(declare-fun f54 () S35)
(declare-fun f55 (S36 S17) S17)
(declare-fun f56 (S37 S17) S36)
(declare-fun f57 () S37)
(declare-fun f58 () S35)
(declare-fun f59 () S37)
(declare-fun f60 (S39 S38) S3)
(declare-fun f61 (S40 S3) S39)
(declare-fun f62 () S40)
(declare-fun f63 (S38 S2) S2)
(declare-fun f64 (S42 S41) S17)
(declare-fun f65 (S43 S3) S42)
(declare-fun f66 () S43)
(declare-fun f67 (S41 S2) S13)
(declare-fun f68 (S45 S44) S3)
(declare-fun f69 (S46 S17) S45)
(declare-fun f70 () S46)
(declare-fun f71 (S44 S13) S2)
(declare-fun f72 (S47 S28) S3)
(declare-fun f73 (S48 S3) S47)
(declare-fun f74 () S48)
(declare-fun f75 (S49 S31) S17)
(declare-fun f76 (S50 S3) S49)
(declare-fun f77 () S50)
(declare-fun f78 (S51 S30) S3)
(declare-fun f79 (S52 S17) S51)
(declare-fun f80 () S52)
(declare-fun f81 (S53 S17) S1)
(declare-fun f82 (S54 S13) S53)
(declare-fun f83 () S54)
(declare-fun f84 (S55 S27) S17)
(declare-fun f85 (S56 S17) S55)
(declare-fun f86 () S56)
(declare-fun f87 () S48)
(declare-fun f88 () S50)
(declare-fun f89 () S52)
(declare-fun f90 (S9 S13) S12)
(declare-fun f91 () S53)
(declare-fun f92 () S36)
(declare-fun f93 () S41)
(declare-fun f94 () S4)
(declare-fun f95 (S57 S18) S17)
(declare-fun f96 () S57)
(declare-fun f97 (S7) S58)
(declare-fun f98 () S58)
(declare-fun f99 (S59 S18) S23)
(declare-fun f100 () S59)
(declare-fun f101 () S37)
(declare-fun f102 () S35)
(declare-fun f103 () S18)
(declare-fun f104 (S60) S60)
(declare-fun f105 () S60)
(declare-fun f106 (S61) S61)
(declare-fun f107 () S61)
(declare-fun f108 (S58) S58)
(assert (not (= f1 f2)))
(assert (forall ((?v0 S2)) (= (= (f3 f4 ?v0) f1) (and (= (f5 (f6 f7 ?v0) (f8 f9 f10)) f1) (= (f3 (f11 (f12 (f13 f14 f15) f16) f16) ?v0) f1)))))
(assert (forall ((?v0 S13)) (= (f17 f15 ?v0) (f18 (f19 f20 f2) f21))))
(assert (forall ((?v0 S13)) (= (= (f22 f23 ?v0) f1) (exists ((?v1 S18) (?v2 S13)) (and (= ?v0 (f24 (f25 f26 (f27 (f28 f29 (f30 f31 ?v1)) f32)) ?v2)) (= (f5 (f6 f7 (f33 (f34 f35 ?v2) ?v1)) (f36 f37 f4)) f1))))))
(assert (forall ((?v0 S13) (?v1 S18)) (= (= (f38 (f17 f21 ?v0) ?v1) f1) (= (f22 (f39 f40 ?v0) f41) f1))))
(assert (forall ((?v0 S28) (?v1 S2) (?v2 S2)) (= (= (f3 (f42 (f43 f44 ?v0) ?v1) ?v2) f1) (= (f3 (f42 ?v0 ?v2) ?v1) f1))))
(assert (forall ((?v0 S30) (?v1 S13) (?v2 S2)) (= (= (f3 (f45 (f46 f47 ?v0) ?v1) ?v2) f1) (= (f22 (f48 ?v0 ?v2) ?v1) f1))))
(assert (forall ((?v0 S31) (?v1 S2) (?v2 S13)) (= (= (f22 (f48 (f49 f50 ?v0) ?v1) ?v2) f1) (= (f3 (f45 ?v0 ?v2) ?v1) f1))))
(assert (forall ((?v0 S27) (?v1 S13) (?v2 S13)) (= (= (f22 (f39 (f51 f52 ?v0) ?v1) ?v2) f1) (= (f22 (f39 ?v0 ?v2) ?v1) f1))))
(assert (forall ((?v0 S3) (?v1 S3) (?v2 S2)) (= (= (f3 (f36 (f53 f54 ?v0) ?v1) ?v2) f1) (or (= (f3 ?v0 ?v2) f1) (= (f3 ?v1 ?v2) f1)))))
(assert (forall ((?v0 S17) (?v1 S17) (?v2 S13)) (= (= (f22 (f55 (f56 f57 ?v0) ?v1) ?v2) f1) (or (= (f22 ?v0 ?v2) f1) (= (f22 ?v1 ?v2) f1)))))
(assert (forall ((?v0 S3) (?v1 S3) (?v2 S2)) (= (= (f3 (f36 (f53 f58 ?v0) ?v1) ?v2) f1) (and (= (f3 ?v0 ?v2) f1) (= (f3 ?v1 ?v2) f1)))))
(assert (forall ((?v0 S17) (?v1 S17) (?v2 S13)) (= (= (f22 (f55 (f56 f59 ?v0) ?v1) ?v2) f1) (and (= (f22 ?v0 ?v2) f1) (= (f22 ?v1 ?v2) f1)))))
(assert (forall ((?v0 S3) (?v1 S38) (?v2 S2)) (= (= (f3 (f60 (f61 f62 ?v0) ?v1) ?v2) f1) (exists ((?v3 S2)) (and (= ?v2 (f63 ?v1 ?v3)) (= (f3 ?v0 ?v3) f1))))))
(assert (forall ((?v0 S3) (?v1 S41) (?v2 S13)) (= (= (f22 (f64 (f65 f66 ?v0) ?v1) ?v2) f1) (exists ((?v3 S2)) (and (= ?v2 (f67 ?v1 ?v3)) (= (f3 ?v0 ?v3) f1))))))
(assert (forall ((?v0 S17) (?v1 S44) (?v2 S2)) (= (= (f3 (f68 (f69 f70 ?v0) ?v1) ?v2) f1) (exists ((?v3 S13)) (and (= ?v2 (f71 ?v1 ?v3)) (= (f22 ?v0 ?v3) f1))))))
(assert (forall ((?v0 S3) (?v1 S28) (?v2 S2)) (= (= (f3 (f72 (f73 f74 ?v0) ?v1) ?v2) f1) (exists ((?v3 S2)) (and (= (f5 (f6 f7 ?v3) ?v0) f1) (= (f3 (f42 ?v1 ?v2) ?v3) f1))))))
(assert (forall ((?v0 S3) (?v1 S31) (?v2 S13)) (= (= (f22 (f75 (f76 f77 ?v0) ?v1) ?v2) f1) (exists ((?v3 S2)) (and (= (f5 (f6 f7 ?v3) ?v0) f1) (= (f3 (f45 ?v1 ?v2) ?v3) f1))))))
(assert (forall ((?v0 S17) (?v1 S30) (?v2 S2)) (= (= (f3 (f78 (f79 f80 ?v0) ?v1) ?v2) f1) (exists ((?v3 S13)) (and (= (f81 (f82 f83 ?v3) ?v0) f1) (= (f22 (f48 ?v1 ?v2) ?v3) f1))))))
(assert (forall ((?v0 S17) (?v1 S27) (?v2 S13)) (= (= (f22 (f84 (f85 f86 ?v0) ?v1) ?v2) f1) (exists ((?v3 S13)) (and (= (f81 (f82 f83 ?v3) ?v0) f1) (= (f22 (f39 ?v1 ?v2) ?v3) f1))))))
(assert (forall ((?v0 S3) (?v1 S28) (?v2 S2)) (= (= (f3 (f72 (f73 f87 ?v0) ?v1) ?v2) f1) (exists ((?v3 S2)) (and (= (f3 ?v0 ?v3) f1) (= (f3 (f42 ?v1 ?v2) ?v3) f1))))))
(assert (forall ((?v0 S3) (?v1 S31) (?v2 S13)) (= (= (f22 (f75 (f76 f88 ?v0) ?v1) ?v2) f1) (exists ((?v3 S2)) (and (= (f3 ?v0 ?v3) f1) (= (f3 (f45 ?v1 ?v2) ?v3) f1))))))
(assert (forall ((?v0 S17) (?v1 S30) (?v2 S2)) (= (= (f3 (f78 (f79 f89 ?v0) ?v1) ?v2) f1) (exists ((?v3 S13)) (and (= (f22 ?v0 ?v3) f1) (= (f22 (f48 ?v1 ?v2) ?v3) f1))))))
(assert (forall ((?v0 S13) (?v1 S13) (?v2 S18)) (= (= (f38 (f17 (f90 f16 ?v0) ?v1) ?v2) f1) false)))
(assert (not (= (f81 f91 (f55 f92 f23)) f1)))
(assert (forall ((?v0 S2)) (=> (= (f5 (f6 f7 ?v0) (f8 f9 f10)) f1) (not (= (f67 f93 ?v0) f41)))))
(assert (forall ((?v0 S7)) (= (f5 f94 (f8 f9 ?v0)) f1)))
(assert (forall ((?v0 S18)) (= (f81 f91 (f95 f96 ?v0)) f1)))
(assert (= (f97 f10) f98))
(assert (forall ((?v0 S3) (?v1 S3)) (=> (or (= (f5 f94 (f36 f37 ?v0)) f1) (= (f5 f94 (f36 f37 ?v1)) f1)) (= (f5 f94 (f36 f37 (f36 (f53 f58 ?v0) ?v1))) f1))))
(assert (forall ((?v0 S17) (?v1 S17)) (=> (or (= (f81 f91 (f55 f92 ?v0)) f1) (= (f81 f91 (f55 f92 ?v1)) f1)) (= (f81 f91 (f55 f92 (f55 (f56 f59 ?v0) ?v1))) f1))))
(assert (forall ((?v0 S13) (?v1 S13)) (= (= (f22 (f39 f40 ?v0) ?v1) f1) (= (f22 (f39 f40 (f24 (f25 f26 ?v0) ?v1)) f41) f1))))
(assert (forall ((?v0 S13) (?v1 S13)) (= (= (f22 (f39 f40 ?v0) ?v1) f1) (= (f22 (f39 f40 (f24 (f25 f26 ?v0) ?v1)) f41) f1))))
(assert (forall ((?v0 S12) (?v1 S9) (?v2 S9) (?v3 S13) (?v4 S18)) (= (= (f3 (f11 (f12 (f13 f14 ?v0) ?v1) ?v2) (f33 (f34 f35 ?v3) ?v4)) f1) (= (f38 (f17 ?v0 ?v3) ?v4) f1))))
(assert (forall ((?v0 S3) (?v1 S38)) (=> (= (f5 f94 (f36 f37 ?v0)) f1) (= (f5 f94 (f36 f37 (f60 (f61 f62 ?v0) ?v1))) f1))))
(assert (forall ((?v0 S3) (?v1 S41)) (=> (= (f5 f94 (f36 f37 ?v0)) f1) (= (f81 f91 (f55 f92 (f64 (f65 f66 ?v0) ?v1))) f1))))
(assert (forall ((?v0 S17) (?v1 S44)) (=> (= (f81 f91 (f55 f92 ?v0)) f1) (= (f5 f94 (f36 f37 (f68 (f69 f70 ?v0) ?v1))) f1))))
(assert (forall ((?v0 S3) (?v1 S28)) (=> (= (f5 f94 (f36 f37 ?v0)) f1) (= (= (f5 f94 (f36 f37 (f72 (f73 f87 ?v0) ?v1))) f1) (forall ((?v2 S2)) (=> (= (f3 ?v0 ?v2) f1) (= (f5 f94 (f36 f37 (f42 (f43 f44 ?v1) ?v2))) f1)))))))
(assert (forall ((?v0 S3) (?v1 S31)) (=> (= (f5 f94 (f36 f37 ?v0)) f1) (= (= (f81 f91 (f55 f92 (f75 (f76 f88 ?v0) ?v1))) f1) (forall ((?v2 S2)) (=> (= (f3 ?v0 ?v2) f1) (= (f81 f91 (f55 f92 (f48 (f49 f50 ?v1) ?v2))) f1)))))))
(assert (forall ((?v0 S17) (?v1 S30)) (=> (= (f81 f91 (f55 f92 ?v0)) f1) (= (= (f5 f94 (f36 f37 (f78 (f79 f89 ?v0) ?v1))) f1) (forall ((?v2 S13)) (=> (= (f22 ?v0 ?v2) f1) (= (f5 f94 (f36 f37 (f45 (f46 f47 ?v1) ?v2))) f1)))))))
(assert (forall ((?v0 S18) (?v1 S18) (?v2 S18)) (= (f27 (f28 f29 (f30 (f99 f100 ?v0) ?v1)) ?v2) (f24 (f25 f26 (f27 (f28 f29 ?v0) ?v2)) (f27 (f28 f29 ?v1) ?v2)))))
(assert (forall ((?v0 S13) (?v1 S13) (?v2 S13) (?v3 S13)) (=> (= (f24 (f25 f26 ?v0) ?v1) (f24 (f25 f26 ?v2) ?v3)) (= (= (f22 (f39 f40 ?v0) ?v1) f1) (= (f22 (f39 f40 ?v2) ?v3) f1)))))
(assert (forall ((?v0 S13)) (= (f24 (f25 f26 ?v0) f41) ?v0)))
(assert (forall ((?v0 S13)) (= (f24 (f25 f26 ?v0) ?v0) f41)))
(assert (forall ((?v0 S17) (?v1 S17)) (=> (= (f81 f91 ?v0) f1) (= (f81 f91 (f55 (f56 f101 ?v0) ?v1)) f1))))
(assert (forall ((?v0 S3) (?v1 S3)) (=> (= (f5 f94 ?v0) f1) (= (f5 f94 (f36 (f53 f102 ?v0) ?v1)) f1))))
(assert (forall ((?v0 S18)) (= (f30 (f99 f100 ?v0) f103) ?v0)))
(assert (forall ((?v0 S17) (?v1 S17)) (=> (= (f81 f91 ?v0) f1) (= (= (f81 f91 (f55 (f56 f101 ?v1) ?v0)) f1) (= (f81 f91 ?v1) f1)))))
(assert (forall ((?v0 S3) (?v1 S3)) (=> (= (f5 f94 ?v0) f1) (= (= (f5 f94 (f36 (f53 f102 ?v1) ?v0)) f1) (= (f5 f94 ?v1) f1)))))
(assert (= (f30 f31 f103) f103))
(assert (= (f104 f105) f105))
(assert (= (f106 f107) f107))
(assert (= (f108 f98) f98))
(assert (forall ((?v0 S1) (?v1 S12)) (= (= (f38 (f18 (f19 f20 ?v0) ?v1) f103) f1) (= ?v0 f1))))
(assert (forall ((?v0 S18)) (= (f27 (f28 f29 ?v0) f103) f41)))
(assert (forall ((?v0 S18)) (= (f27 (f28 f29 f103) ?v0) f41)))
(assert (forall ((?v0 S13)) (= (= f41 ?v0) (= ?v0 f41))))
(assert (forall ((?v0 S13) (?v1 S13) (?v2 S13) (?v3 S13)) (=> (= (f24 (f25 f26 ?v0) ?v1) (f24 (f25 f26 ?v2) ?v3)) (= (= ?v0 ?v1) (= ?v2 ?v3)))))
(assert (forall ((?v0 S13) (?v1 S13)) (or (= (f22 (f39 f40 ?v0) ?v1) f1) (or (= ?v0 ?v1) (= (f22 (f39 f40 ?v1) ?v0) f1)))))
(assert (forall ((?v0 S13) (?v1 S18) (?v2 S13) (?v3 S18)) (= (= (f33 (f34 f35 ?v0) ?v1) (f33 (f34 f35 ?v2) ?v3)) (and (= ?v0 ?v2) (= ?v1 ?v3)))))
(assert (forall ((?v0 S3) (?v1 S28)) (=> (= (f5 f94 ?v0) f1) (= (= (f5 f94 (f36 f37 (f72 (f73 f74 ?v0) ?v1))) f1) (forall ((?v2 S2)) (=> (= (f5 (f6 f7 ?v2) ?v0) f1) (= (f5 f94 (f36 f37 (f42 (f43 f44 ?v1) ?v2))) f1)))))))
(assert (forall ((?v0 S17) (?v1 S30)) (=> (= (f81 f91 ?v0) f1) (= (= (f5 f94 (f36 f37 (f78 (f79 f80 ?v0) ?v1))) f1) (forall ((?v2 S13)) (=> (= (f81 (f82 f83 ?v2) ?v0) f1) (= (f5 f94 (f36 f37 (f45 (f46 f47 ?v1) ?v2))) f1)))))))
(assert (forall ((?v0 S3) (?v1 S31)) (=> (= (f5 f94 ?v0) f1) (= (= (f81 f91 (f55 f92 (f75 (f76 f77 ?v0) ?v1))) f1) (forall ((?v2 S2)) (=> (= (f5 (f6 f7 ?v2) ?v0) f1) (= (f81 f91 (f55 f92 (f48 (f49 f50 ?v1) ?v2))) f1)))))))
(assert (forall ((?v0 S17) (?v1 S27)) (=> (= (f81 f91 ?v0) f1) (= (= (f81 f91 (f55 f92 (f84 (f85 f86 ?v0) ?v1))) f1) (forall ((?v2 S13)) (=> (= (f81 (f82 f83 ?v2) ?v0) f1) (= (f81 f91 (f55 f92 (f39 (f51 f52 ?v1) ?v2))) f1)))))))
(assert (forall ((?v0 S3) (?v1 S3)) (= (= (f5 f94 (f36 f37 (f36 (f53 f54 ?v0) ?v1))) f1) (and (= (f5 f94 (f36 f37 ?v0)) f1) (= (f5 f94 (f36 f37 ?v1)) f1)))))
(assert (forall ((?v0 S17) (?v1 S17)) (= (= (f81 f91 (f55 f92 (f55 (f56 f57 ?v0) ?v1))) f1) (and (= (f81 f91 (f55 f92 ?v0)) f1) (= (f81 f91 (f55 f92 ?v1)) f1)))))
(assert (forall ((?v0 S13) (?v1 S13)) (= (= (f24 (f25 f26 ?v0) ?v1) f41) (= ?v0 ?v1))))
(assert (forall ((?v0 S13) (?v1 S13)) (= (= ?v0 ?v1) (= (f24 (f25 f26 ?v0) ?v1) f41))))
(assert (forall ((?v0 S18) (?v1 S18)) (=> (forall ((?v2 S13)) (=> (= (f81 (f82 f83 ?v2) (f95 f96 ?v0)) f1) (= ?v2 f41))) (= (f27 (f28 f29 ?v0) ?v1) f41))))
(assert (forall ((?v0 S3)) (=> (= (f5 f94 ?v0) f1) (exists ((?v1 S7)) (= (f8 f9 ?v1) ?v0)))))
(assert (forall ((?v0 S17)) (=> (= (f81 f91 ?v0) f1) (exists ((?v1 S18)) (= (f95 f96 ?v1) ?v0)))))
(check-sat)
(exit)
